* SDPA sparse format data
* File name = st_e01.dat-s
* mDim =  12, nBlock =  7
* size of bVect = 1 *  12
* size of sparseMatrix =   71 * 5
 12
  7
-8  4  3  3  3  3  3 
  -1.0000000000   -0.6666666667    0.0000000000    0.0000000000    0.0000000000    0.0000000000    0.0000000000    0.0000000000    0.0000000000    0.0000000000    0.0000000000    0.0000000000 
  4   1   1   1    1.0000000000
 10   1   2   2    1.0000000000
 12   1   3   3    1.0000000000
  3   1   4   4   -1.0000000000
  0   1   4   4   -1.0000000000
  5   1   5   5   -1.0000000000
  0   1   5   5   -1.0000000000
 10   1   6   6   -1.0000000000
  0   1   6   6   -1.0000000000
 11   1   7   7   -1.0000000000
  0   1   7   7   -1.0000000000
 12   1   8   8   -1.0000000000
  0   1   8   8   -1.0000000000
  0   2   1   1   -1.0000000000
  1   2   1   2    1.0000000000
  2   2   1   3    1.0000000000
  4   2   1   4    1.0000000000
  3   2   2   2    1.0000000000
  4   2   2   3    1.0000000000
  7   2   2   4    1.0000000000
  5   2   3   3    1.0000000000
  8   2   3   4    1.0000000000
 11   2   4   4    1.0000000000
  0   3   1   1   -0.1666666667
  4   3   1   1   -1.0000000000
  1   3   1   2    0.1666666667
  7   3   1   2   -1.0000000000
  2   3   1   3    0.1666666667
  8   3   1   3   -1.0000000000
  3   3   2   2    0.1666666667
 10   3   2   2   -1.0000000000
  4   3   2   3    0.1666666667
 11   3   2   3   -1.0000000000
  5   3   3   3    0.1666666667
 12   3   3   3   -1.0000000000
  1   4   1   1    1.0000000000
  3   4   1   2    1.0000000000
  4   4   1   3    1.0000000000
  6   4   2   2    1.0000000000
  7   4   2   3    1.0000000000
  8   4   3   3    1.0000000000
  2   5   1   1    1.0000000000
  4   5   1   2    1.0000000000
  5   5   1   3    1.0000000000
  7   5   2   2    1.0000000000
  8   5   2   3    1.0000000000
  9   5   3   3    1.0000000000
  0   6   1   1   -1.0000000000
  1   6   1   1   -1.0000000000
  1   6   1   2    1.0000000000
  3   6   1   2   -1.0000000000
  2   6   1   3    1.0000000000
  4   6   1   3   -1.0000000000
  3   6   2   2    1.0000000000
  6   6   2   2   -1.0000000000
  4   6   2   3    1.0000000000
  7   6   2   3   -1.0000000000
  5   6   3   3    1.0000000000
  8   6   3   3   -1.0000000000
  0   7   1   1   -1.0000000000
  2   7   1   1   -1.0000000000
  1   7   1   2    1.0000000000
  4   7   1   2   -1.0000000000
  2   7   1   3    1.0000000000
  5   7   1   3   -1.0000000000
  3   7   2   2    1.0000000000
  7   7   2   2   -1.0000000000
  4   7   2   3    1.0000000000
  8   7   2   3   -1.0000000000
  5   7   3   3    1.0000000000
  9   7   3   3   -1.0000000000
